NAME : P-n16-k8.txt
COMMENT : (Augerat et al, No of trucks: 8, Optimal value: 450)
TYPE : CVRP
DIMENSION : 16
EDGE_WEIGHT_TYPE : EUC_2D
CAPACITY : 35
NODE_COORD_SECTION
1 30 40
2 37 52
3 49 49
4 52 64
5 31 62
6 52 33
7 42 41
8 52 41
9 57 58
10 62 42
11 42 57
12 27 68
13 43 67
14 58 48
15 58 27
16 37 69